254970.54,18.19,19.92
249046.16,18.62,20.4
253048.81,18.33,20.07
250039.95,18.55,20.32
253012.94,18.33,20.08
253879.93,18.27,20.01
265000.63,17.5,19.17
261143.05,17.76,19.45
265392.94,17.47,19.14
259544.63,17.87,19.57
242223.81,19.15,20.97
245583.5,18.88,20.68
261536.7,17.73,19.42
265498.75,17.47,19.13
254734.22,18.21,19.94
258899.89,17.91,19.62
253777.54,18.27,20.02
257910.57,17.98,19.7
256612.1,18.07,19.8
253138.74,18.32,20.07
